12 32 3 10
17 8 11 20 4 14 19 14 10 9 15 3 16 8 2 2 10 5 2 11 6 1 6 9 14 1 13 5 18 19 4 6 
13.25 14.96 5.49 15.62 1.88 1.37 6.94 8 2.73 6.56 13.1 5.07 15.53 2.62 7.74 1.32 1.33 1.38 1.22 13.89 0.25 2.36 11.37 7 5.94 0.94 8.23 6.77 1.51 1.69 1.29 5.79 
0.89 13.77 14.52 2.83 7.14 3.14 15.34 12.17 11.6 8.5 2.41 15.8 7.79 4.39 7.92 15.92 6.4 13.2 10.88 10.66 13.32 2.36 7.38 5.59 4.77 5.8 6.24 1.16 0.11 8.69 8.26 2.69 
14.21 1.78 8.47 8.22 10.39 0.32 2.74 9.09 7.47 7.12 6.09 9.79 6.91 4.19 12.6 2.41 0.85 5.13 10.05 3.14 12.68 15.89 1.82 0.08 15.5 7.21 1.36 12.17 6.92 14.77 15.74 7.1 
8 8 8 8 8 8 8 8 8 8 8 8 8 8 8 8 8 8 8 8 8 8 8 8 8 8 8 8 8 8 8 8 
9.42 10.31 2.48 3.58 8.56 13.5 4 11.63 2.48 4.96 3.12 12.48 7.95 13.03 4.35 7.79 4.26 2.96 7.81 1.27 2.04 3.65 9.61 8.5 15.04 4.51 9.31 5.25 7.49 9.04 14.5 15.2 
7.68 12.89 5.37 7.52 2.1 1.48 13.22 1.22 2.29 5.4 4.68 5.21 5.8 2.91 15.33 6.15 0.72 14.64 10.62 11.81 1.26 9.65 0.68 15.26 11.27 3.49 15.19 8.31 1.9 7.95 2.49 4.43 
10.52 13.39 3.26 6.44 14.98 9.19 6.34 8.55 10.45 15.45 8.85 5.9 12 1.78 4.3 9.16 3.43 0.06 13.43 0.7 11.08 12.65 10.33 10.71 5.4 1.21 1.81 5.14 3.66 9.32 2.2 6.64 
15.08 3.66 12.02 3.44 11.3 0.28 1.68 13.17 6.6 8.98 15.2 9.34 12.65 7.77 11.39 8.52 9.79 3.37 13.19 10.97 10.71 12.81 13.88 15.67 5.9 6.44 1.53 12.16 2.41 5.94 9.17 9.15 
3.75 11.5 3.49 12.81 10.3 15.9 1.41 2.05 3.72 9.24 6.54 12.69 15.59 8.79 1.06 8.8 12.56 9.16 14.17 5.5 6.16 9.4 11.52 7.82 11.64 11.81 12.57 14.22 8.13 12.75 0.31 11.32 
13.1 3.58 3.24 10.04 5.05 14.02 12.05 7.94 11.71 11.75 1 13.87 12.48 15.83 6.33 11.84 7.23 12.54 7.01 14.31 1.46 3.12 9.61 4.97 7.53 14.53 12.82 9.56 8.08 8.64 12.82 8.92 
12.53 15.55 15.77 2.8 7.74 9.61 14.3 7.81 5.65 9.82 5.89 14.13 14.71 10.46 7.28 6.37 10.05 5.26 14.24 11.91 5.95 14.14 0.18 5.55 3.01 8.92 5.25 0.55 4.64 6.76 1.19 6.17 
14.22 3.32 12.07 5.11 9.22 1.82 8.13 9.9 5.02 14.28 15.77 10.11 3.24 12.84 6.55 8.46 4.82 11.43 12.29 10.92 1.87 13.81 13.83 11.98 6.4 14.76 11.61 3.63 11.96 12.83 13.14 12.84 
1 1 1 1 1 1 1 1 1 1 1 1 1 1 1 1 1 1 1 1 1 1 1 1 1 1 1 1 1 1 1 1 
1 1 1 1 1 1 1 1 1 1 1 1 1 1 1 1 1 1 1 1 1 1 1 1 1 1 1 1 1 1 1 1 
1 1 1 1 1 1 1 1 1 1 1 1 1 1 1 1 1 1 1 1 1 1 1 1 1 1 1 1 1 1 1 1 
1 1 1 1 1 1 1 1 1 1 1 1 1 1 1 1 1 1 1 1 1 1 1 1 1 1 1 1 1 1 1 1 
1 1 1 1 1 1 1 1 1 1 1 1 1 1 1 1 1 1 1 1 1 1 1 1 1 1 1 1 1 1 1 1 
1 1 1 1 1 1 1 1 1 1 1 1 1 1 1 1 1 1 1 1 1 1 1 1 1 1 1 1 1 1 1 1 
1 1 1 1 1 1 1 1 1 1 1 1 1 1 1 1 1 1 1 1 1 1 1 1 1 1 1 1 1 1 1 1 
1 1 1 1 1 1 1 1 1 1 1 1 1 1 1 1 1 1 1 1 1 1 1 1 1 1 1 1 1 1 1 1 
1 1 1 1 1 1 1 1 1 1 1 1 1 1 1 1 1 1 1 1 1 1 1 1 1 1 1 1 1 1 1 1 
1 1 1 1 1 1 1 1 1 1 1 1 1 1 1 1 1 1 1 1 1 1 1 1 1 1 1 1 1 1 1 1 
1 1 1 1 1 1 1 1 1 1 1 1 1 1 1 1 1 1 1 1 1 1 1 1 1 1 1 1 1 1 1 1 
1 1 1 1 1 1 1 1 1 1 1 1 1 1 1 1 1 1 1 1 1 1 1 1 1 1 1 1 1 1 1 1 
0.01 0.01 0.01 0.01 0.01 0.01 0.01 0.01 0.01 0.01 0.01 0.01 0.01 0.01 0.01 0.01 0.01 0.01 0.01 0.01 0.01 0.01 0.01 0.01 0.01 0.01 0.01 0.01 0.01 0.01 0.01 0.01 
0.02 0.02 0.02 0.02 0.02 0.02 0.02 0.02 0.02 0.02 0.02 0.02 0.02 0.02 0.02 0.02 0.02 0.02 0.02 0.02 0.02 0.02 0.02 0.02 0.02 0.02 0.02 0.02 0.02 0.02 0.02 0.02 
0.03 0.03 0.03 0.03 0.03 0.03 0.03 0.03 0.03 0.03 0.03 0.03 0.03 0.03 0.03 0.03 0.03 0.03 0.03 0.03 0.03 0.03 0.03 0.03 0.03 0.03 0.03 0.03 0.03 0.03 0.03 0.03 
0.04 0.04 0.04 0.04 0.04 0.04 0.04 0.04 0.04 0.04 0.04 0.04 0.04 0.04 0.04 0.04 0.04 0.04 0.04 0.04 0.04 0.04 0.04 0.04 0.04 0.04 0.04 0.04 0.04 0.04 0.04 0.04 
0.125 0.125 0.125 0.125 0.125 0.125 0.125 0.125 0.125 0.125 0.125 0.125 0.125 0.125 0.125 0.125 0.125 0.125 0.125 0.125 0.125 0.125 0.125 0.125 0.125 0.125 0.125 0.125 0.125 0.125 0.125 0.125 
0.25 0.25 0.25 0.25 0.25 0.25 0.25 0.25 0.25 0.25 0.25 0.25 0.25 0.25 0.25 0.25 0.25 0.25 0.25 0.25 0.25 0.25 0.25 0.25 0.25 0.25 0.25 0.25 0.25 0.25 0.25 0.25 
0.375 0.375 0.375 0.375 0.375 0.375 0.375 0.375 0.375 0.375 0.375 0.375 0.375 0.375 0.375 0.375 0.375 0.375 0.375 0.375 0.375 0.375 0.375 0.375 0.375 0.375 0.375 0.375 0.375 0.375 0.375 0.375 
0.5 0.5 0.5 0.5 0.5 0.5 0.5 0.5 0.5 0.5 0.5 0.5 0.5 0.5 0.5 0.5 0.5 0.5 0.5 0.5 0.5 0.5 0.5 0.5 0.5 0.5 0.5 0.5 0.5 0.5 0.5 0.5 
0.625 0.625 0.625 0.625 0.625 0.625 0.625 0.625 0.625 0.625 0.625 0.625 0.625 0.625 0.625 0.625 0.625 0.625 0.625 0.625 0.625 0.625 0.625 0.625 0.625 0.625 0.625 0.625 0.625 0.625 0.625 0.625 
0.75 0.75 0.75 0.75 0.75 0.75 0.75 0.75 0.75 0.75 0.75 0.75 0.75 0.75 0.75 0.75 0.75 0.75 0.75 0.75 0.75 0.75 0.75 0.75 0.75 0.75 0.75 0.75 0.75 0.75 0.75 0.75 
0.875 0.875 0.875 0.875 0.875 0.875 0.875 0.875 0.875 0.875 0.875 0.875 0.875 0.875 0.875 0.875 0.875 0.875 0.875 0.875 0.875 0.875 0.875 0.875 0.875 0.875 0.875 0.875 0.875 0.875 0.875 0.875 
1 1 1 1 1 1 1 1 1 1 1 1 1 1 1 1 1 1 1 1 1 1 1 1 1 1 1 1 1 1 1 1 
